75
29 165 120
176 124 26
147 125 44
101 193 24
41 98 178
71 69
142 163 148 67
87 77 160
79 51
36 96
170 15 126
158 131 199 25
65
30 191 184 132 174
80 94 152
7 109
146 157 27
129 4 180
18 159 137
56
57
32 95
140 156 21
8 106
28 128
54 136 198 149 189 183
48 81
150 49 185 133
114 168 187 43
104 13 200
107 10
55 134
83 182 194 112 143
37 88
127 175 9
84 40
155 138 45 172
12 111 186
139 153 20
42 85
14 197 105
92 34
179 171 154 3
39 161 116
123 61 145 188
6 162 141
164 11 135
91 35
33 181 110 190
63 73
122 177 144 74
89 38
1 117 192
47 86
59
169 52 118 173
62 72
68 93 166
50 97
119 108 90
2 115
78 60 195
70
53 76
103 16
31 151 130
19 100
82 46 196
58 75
121 167 23
5 113
17 102
22 99
66
64
